This is Ipopt version 3.10.1, running with linear solver mumps.

Number of nonzeros in equality constraint Jacobian...:      225
Number of nonzeros in inequality constraint Jacobian.:        0
Number of nonzeros in Lagrangian Hessian.............:     5568

Total number of variables............................:      114
                     variables with only lower bounds:        0
                variables with lower and upper bounds:      114
                     variables with only upper bounds:        0
Total number of equality constraints.................:       75
Total number of inequality constraints...............:        0
        inequality constraints with only lower bounds:        0
   inequality constraints with lower and upper bounds:        0
        inequality constraints with only upper bounds:        0

iter    objective    inf_pr   inf_du lg(mu)  ||d||  lg(rg) alpha_du alpha_pr  ls
   0 -4.1707299e-05 1.07e-10 2.70e-05  -1.0 0.00e+00    -  0.00e+00 0.00e+00   0
   1 -4.1394898e-05 2.22e-16 9.53e-08  -1.7 1.87e-02    -  1.00e+00 1.00e+00f  1
   2 -4.0095204e-05 2.22e-16 4.31e-07  -2.5 4.48e-02    -  1.00e+00 1.00e+00f  1
   3 -4.0026948e-05 4.44e-16 1.03e-07  -3.8 3.38e-02    -  1.00e+00 1.00e+00f  1
   4 -4.4200845e-05 2.64e-13 3.94e-05  -5.7 1.23e-02    -  9.72e-01 1.00e+00f  1
   5 -2.6187781e-05 8.90e-14 2.25e-04  -5.7 4.35e-01  -4.0 3.43e-01 6.62e-01h  1
   6 -1.8639654e-04 4.22e-15 3.09e-04  -5.7 8.39e-01  -3.6 6.34e-01 9.53e-01f  1
   7 -1.7655182e-04 4.00e-15 3.02e-04  -5.7 1.37e-01  -3.1 4.68e-01 3.12e-02f  6
   8 -2.6954981e-04 3.22e-15 3.86e-04  -5.7 1.83e-01  -2.7 9.57e-01 2.11e-01f  1
   9 -2.4948179e-04 3.00e-15 3.63e-04  -5.7 9.30e-02  -3.2 4.73e-01 6.25e-02f  5
iter    objective    inf_pr   inf_du lg(mu)  ||d||  lg(rg) alpha_du alpha_pr  ls
  10 -1.6351328e-05 2.22e-16 1.74e-03  -5.7 4.99e-01  -2.8 2.75e-01 1.00e+00h  1
  11 -2.0887922e-05 2.22e-16 2.62e-05  -5.7 4.75e-02  -3.3 1.00e+00 1.00e+00f  1
  12 -3.8491407e-05 1.67e-15 2.46e-05  -5.7 9.41e-02  -3.7 1.00e+00 1.00e+00F  1
  13 -5.0925400e-05 2.22e-16 2.55e-05  -5.7 4.30e-02  -3.3 1.00e+00 1.00e+00F  1
  14 -5.7802034e-05 2.22e-16 2.67e-05  -5.7 1.92e-02  -2.9 1.00e+00 1.00e+00f  1
  15 -1.4532606e-04 2.22e-16 1.49e-04  -5.7 1.16e-01  -3.4 1.00e+00 1.00e+00f  1
  16 -1.4644052e-04 7.77e-16 1.30e-04  -5.7 2.07e-01  -2.9 1.00e+00 3.38e-03f  7
  17 -5.5048212e-05 8.88e-16 2.80e-04  -5.7 1.37e-01  -3.4 6.18e-01 1.00e+00h  1
  18 -6.1663195e-05 2.22e-16 2.59e-05  -5.7 2.36e-02  -3.0 1.00e+00 1.00e+00f  1
  19 -6.2374271e-05 6.66e-16 2.08e-05  -5.7 1.25e-01  -3.5 1.00e+00 1.82e-02f  6
iter    objective    inf_pr   inf_du lg(mu)  ||d||  lg(rg) alpha_du alpha_pr  ls
  20 -7.2187816e-05 2.22e-16 2.67e-05  -5.7 2.98e-02  -3.0 1.00e+00 1.00e+00f  1
  21 -1.2015268e-04 2.22e-16 6.66e-05  -5.7 2.16e-01  -3.5 1.00e+00 3.55e-01f  1
  22 -2.8651048e-04 6.37e-14 2.57e-04  -5.7 9.89e-02  -3.1 1.00e+00 9.89e-01f  1
  23 -5.5721582e-04 1.73e-13 4.69e-04  -5.7 1.83e-01  -2.7 1.00e+00 3.51e-01f  1
  24 -7.3986867e-04 1.32e-13 9.42e-04  -5.7 9.88e-02  -2.2 1.00e+00 2.35e-01f  1
  25 -9.1139883e-04 4.37e-14 5.01e-04  -5.7 2.71e-02  -1.8 1.00e+00 6.69e-01f  1
  26 -1.2608989e-03 2.08e-13 9.31e-03  -5.7 9.40e-01  -2.3 5.77e-01 3.01e-02f  1
  27 -1.8096481e-03 9.93e-14 9.56e-04  -5.7 6.65e-02  -1.9 1.00e+00 5.22e-01f  1
  28 -2.0334133e-03 5.01e-14 9.62e-04  -5.7 2.58e-02  -1.4 1.00e+00 4.95e-01f  1
  29 -2.6161532e-03 3.63e-13 5.42e-03  -5.7 1.95e-01  -1.9 1.00e+00 1.62e-01f  1
iter    objective    inf_pr   inf_du lg(mu)  ||d||  lg(rg) alpha_du alpha_pr  ls
  30 -3.1062766e-03 6.04e-13 1.51e-03  -5.7 4.82e-02  -1.5 1.00e+00 4.68e-01f  1
  31 -3.1032495e-03 6.04e-13 1.52e-03  -5.7 2.53e+00  -2.0 1.24e-02 5.83e-05f 13
  32 -3.5643125e-03 4.55e-13 2.72e-03  -5.7 7.77e-02  -1.5 1.00e+00 2.46e-01f  1
  33 -3.5530565e-03 4.55e-13 2.47e-03  -5.7 5.19e-01  -2.0 1.50e-02 9.77e-04f 11
  34 -3.5469699e-03 4.54e-13 1.43e-02  -5.7 1.83e+00  -1.6 1.10e-01 6.10e-04f 10
  35 -8.9568005e-04 2.22e-16 1.04e-02  -5.7 3.26e-01  -2.1 2.39e-01 1.00e+00h  1
  36 -1.1128576e-03 3.64e-13 9.69e-03  -5.7 5.54e-01  -2.5 5.18e-01 7.00e-02f  3
  37 -1.9538900e-03 2.22e-15 1.08e-03  -5.7 9.83e-02  -2.1 1.00e+00 1.00e+00F  1
  38 -2.3062209e-03 2.11e-15 1.15e-03  -5.7 5.39e-02  -1.7 1.00e+00 4.78e-01f  1
  39 -2.5628250e-03 3.96e-13 1.08e-03  -5.7 1.97e-02  -1.3 1.00e+00 1.00e+00f  1
iter    objective    inf_pr   inf_du lg(mu)  ||d||  lg(rg) alpha_du alpha_pr  ls
  40 -4.7094073e-03 1.25e-14 2.67e-03  -5.7 9.16e-02  -1.7 1.00e+00 9.68e-01f  1
  41 -4.7815976e-03 1.18e-14 6.16e-03  -5.7 5.57e-02  -1.3 1.00e+00 5.16e-02f  1
  42 -6.1326971e-03 1.11e-14 2.48e-02  -5.7 7.93e-01  -1.8 7.52e-01 6.00e-02f  1
  43 -8.4234737e-03 2.00e-15 3.56e-03  -5.7 8.43e-02  -1.4 1.00e+00 8.26e-01f  1
  44 -8.4194478e-03 1.89e-15 3.59e-03  -5.7 5.42e-01  -1.8 4.78e-02 1.93e-04f 12
  45 -8.4120792e-03 1.27e-14 8.19e-03  -5.7 1.69e+01  -1.4 5.88e-03 4.46e-05f  8
  46 -9.5929430e-03 7.74e-13 4.00e-03  -5.7 4.20e-02  -1.0 1.00e+00 6.68e-01f  1
  47 -1.0215533e-02 7.42e-13 1.98e-02  -5.7 3.21e-01  -1.5 7.08e-01 4.10e-02f  1
  48 -1.0633218e-02 8.79e-13 6.82e-03  -5.7 4.91e-02  -1.0 1.00e+00 1.76e-01f  1
  49 -1.3683312e-02 2.20e-12 8.34e-03  -5.7 3.35e-01  -1.5 3.55e-01 1.85e-01f  1
iter    objective    inf_pr   inf_du lg(mu)  ||d||  lg(rg) alpha_du alpha_pr  ls
  50 -1.3995652e-02 2.07e-12 1.24e-02  -5.7 9.33e-02  -1.1 1.00e+00 6.06e-02f  1
  51 -1.6656402e-02 2.04e-12 1.43e-02  -5.7 3.02e+00  -1.6 2.48e-02 1.63e-02f  1
  52 -1.7207597e-02 2.27e-12 2.06e-02  -5.7 1.40e-01  -1.1 1.00e+00 6.16e-02f  1
  53 -1.8661577e-02 9.31e-13 6.20e-03  -5.7 3.41e-02  -0.7 1.00e+00 5.90e-01f  1
  54 -1.9419675e-02 1.30e-12 1.90e-02  -5.7 1.05e-01  -1.2 1.00e+00 9.16e-02f  1
  55 -1.4401167e-02 1.23e-12 2.19e-02  -5.7 2.02e+00  -1.7 1.40e-02 4.98e-02h  1
  56 -1.5073605e-02 1.02e-12 2.00e-02  -5.7 1.58e-01  -1.2 3.68e-02 1.76e-01f  1
  57 -1.7325190e-02 9.69e-13 2.80e-02  -5.7 1.08e+00  -1.7 2.04e-01 4.66e-02f  1
  58 -1.8177313e-02 8.50e-13 1.54e-02  -5.7 9.91e-02  -1.3 9.33e-01 1.23e-01f  1
  59 -1.8175813e-02 8.50e-13 1.40e-02  -5.7 1.16e+01  -1.8 2.27e-03 4.24e-06f 12
iter    objective    inf_pr   inf_du lg(mu)  ||d||  lg(rg) alpha_du alpha_pr  ls
  60 -1.8166342e-02 8.50e-13 2.20e-02  -5.7 1.49e+02  -1.3 8.77e-04 3.71e-06f  6
  61 -1.8388769e-02 1.14e-12 1.66e-02  -5.7 1.01e-01  -0.9 3.16e-01 1.03e-01f  3
  62 -2.0381469e-02 9.13e-13 1.59e-02  -5.7 1.51e-01  -1.4 9.78e-01 2.02e-01f  1
  63 -2.3969345e-02 3.14e-12 5.15e-03  -5.7 4.53e-02  -1.0 1.00e+00 1.00e+00f  1
  64 -2.6269672e-02 2.92e-12 9.18e-03  -5.7 3.84e-01  -1.4 2.44e-01 7.14e-02f  1
  65 -3.2645939e-02 4.11e-12 7.63e-03  -5.7 7.95e-02  -1.0 4.84e-01 7.83e-01f  1
  66 -3.6974328e-02 6.11e-12 3.29e-02  -5.7 4.14e+00  -1.5 5.88e-02 1.07e-02f  1
  67 -4.0474917e-02 6.78e-12 2.62e-02  -5.7 1.32e-01  -1.1 1.00e+00 2.34e-01f  1
  68 -4.0980879e-02 7.06e-12 9.36e-02  -5.7 1.48e+00  -1.5 2.36e-01 3.39e-03f  1
  69 -4.5552999e-02 7.86e-12 2.39e-02  -5.7 1.06e-01  -1.1 1.00e+00 3.50e-01f  1
iter    objective    inf_pr   inf_du lg(mu)  ||d||  lg(rg) alpha_du alpha_pr  ls
  70 -4.9553367e-02 4.44e-16 7.00e-03  -5.7 3.33e-02  -0.7 1.00e+00 1.00e+00f  1
  71 -5.5573699e-02 3.43e-12 8.94e-03  -5.7 1.44e-01  -1.2 6.61e-01 3.58e-01f  1
  72 -5.7728903e-02 2.29e-12 4.29e-02  -5.7 5.29e-02  -0.7 3.51e-02 3.33e-01f  1
  73 -6.0891208e-02 3.89e-12 3.90e-02  -5.7 3.04e-01  -1.2 3.11e-02 8.34e-02f  1
  74 -6.2378470e-02 3.04e-12 3.48e-02  -5.7 4.71e-02  -0.8 7.58e-01 2.18e-01f  1
  75 -7.4165070e-02 9.83e-12 2.90e-02  -5.7 1.50e-01  -1.3 3.32e-01 6.07e-01f  1
  76 -7.7672147e-02 5.85e-12 7.16e-02  -5.7 5.95e-02  -0.8 4.14e-02 4.05e-01f  1
  77 -8.3926048e-02 5.08e-12 6.19e-02  -5.7 3.39e-01  -1.3 2.87e-01 1.30e-01f  1
  78 -8.4399357e-02 4.75e-12 4.39e-02  -5.7 7.88e-02  -0.9 4.85e-01 6.56e-02f  1
  79 -8.4403773e-02 4.75e-12 4.42e-02  -5.7 8.48e-01  -1.4 6.59e-03 1.30e-04f  2
iter    objective    inf_pr   inf_du lg(mu)  ||d||  lg(rg) alpha_du alpha_pr  ls
  80 -8.5600250e-02 5.75e-12 3.97e-02  -5.7 9.92e-02  -1.0 1.10e-02 1.09e-01f  1
  81 -8.6527278e-02 6.45e-12 3.89e-02  -5.7 1.31e+00  -1.4 1.46e-04 9.22e-03f  1
  82 -8.6569129e-02 6.44e-12 3.61e-02  -5.7 8.51e+00  -1.0 3.27e-03 1.43e-04f  1
  83 -8.7197413e-02 6.44e-12 3.77e-02  -5.7 2.24e+02  -1.5 1.30e-07 5.61e-05f  1
  84 -8.7197096e-02 6.44e-12 5.14e-02  -5.7 1.65e+00  -1.1 2.41e-03 1.60e-04f  1
  85 -8.7838503e-02 5.89e-12 3.21e-02  -5.7 4.22e-02  -0.6 6.83e-01 1.26e-01f  1
  86 -9.0647919e-02 5.15e-12 6.01e-02  -5.7 1.80e-01  -1.1 7.78e-01 1.26e-01f  1
  87 -9.1550770e-02 5.12e-12 7.24e-02  -5.7 1.69e+00  -1.6 3.10e-02 4.78e-03f  1
  88 -9.4409958e-02 7.49e-12 4.98e-02  -5.7 1.24e-01  -1.2 1.00e+00 2.55e-01f  1
  89 -9.8651143e-02 3.33e-16 8.42e-03  -5.7 4.48e-02  -0.7 1.00e+00 1.00e+00f  1
iter    objective    inf_pr   inf_du lg(mu)  ||d||  lg(rg) alpha_du alpha_pr  ls
  90 -1.0163760e-01 2.77e-12 1.65e-02  -5.7 1.37e-01  -1.2 4.64e-01 1.80e-01f  1
  91 -1.0163279e-01 2.77e-12 1.21e-02  -5.7 2.70e-01  -1.7 1.59e-01 2.48e-04f 10
  92 -1.0156615e-01 2.72e-12 2.51e-02  -5.7 9.52e-02    -  5.14e-01 1.78e-02h  1
  93 -1.0295660e-01 2.30e-12 2.04e-02  -5.7 1.27e-01  -1.3 1.71e-01 1.56e-01f  1
  94 -1.0359480e-01 3.02e-11 6.32e-02  -5.7 3.59e-02  -0.8 9.06e-02 2.60e-01f  1
  95 -1.0358364e-01 3.02e-11 7.51e-02  -5.7 1.14e-01    -  3.86e-01 1.36e-03f 10
  96 -1.0168145e-01 2.21e-11 5.51e-02  -5.7 1.14e-01    -  2.28e-01 2.69e-01h  2
  97 -1.0266380e-01 1.97e-11 4.15e-02  -5.7 1.54e-01  -1.3 2.32e-01 9.28e-02f  1
  98 -1.0265309e-01 1.97e-11 4.30e-02  -5.7 9.68e-02    -  9.51e-02 1.73e-03f  6
  99 -1.0265179e-01 1.97e-11 6.92e-02  -5.7 9.00e-02    -  5.98e-02 2.36e-04f  5
iter    objective    inf_pr   inf_du lg(mu)  ||d||  lg(rg) alpha_du alpha_pr  ls
 100 -9.9568704e-02 2.53e-12 1.17e-01  -5.7 9.72e-02    -  1.62e-01 8.71e-01h  1
 101 -9.9553447e-02 2.33e-12 1.13e-01  -5.7 3.19e-02  -1.8 4.60e-01 7.84e-02f  2
 102 -9.9528202e-02 8.44e-15 2.19e-02  -5.7 1.56e-02    -  2.33e-01 1.00e+00f  1
 103 -9.9542628e-02 1.78e-15 9.82e-04  -5.7 7.70e-03  -2.3 8.69e-01 1.00e+00f  1
 104 -9.9557988e-02 2.22e-16 9.50e-03  -5.7 5.21e-02    -  2.17e-01 1.00e+00f  1
 105 -9.9555604e-02 4.44e-16 2.26e-05  -5.7 1.02e-02  -2.7 1.00e+00 1.00e+00f  1
 106 -9.9554217e-02 3.33e-16 1.10e-04  -5.7 2.81e-02    -  1.00e+00 1.00e+00f  1
 107 -9.9580956e-02 1.33e-15 2.97e-03  -5.7 7.66e-02  -3.2 1.00e+00 8.33e-01f  1
 108 -9.9567847e-02 6.66e-16 3.37e-03  -5.7 3.07e-02    -  1.00e+00 5.00e-01f  2
 109 -9.9573319e-02 6.66e-16 4.37e-03  -5.7 2.65e-02  -2.8 1.00e+00 2.90e-01f  2
iter    objective    inf_pr   inf_du lg(mu)  ||d||  lg(rg) alpha_du alpha_pr  ls
 110 -9.9579122e-02 2.22e-16 1.06e-05  -5.7 7.50e-03  -3.3 1.00e+00 1.00e+00f  1
 111 -9.9682407e-02 2.22e-16 7.39e-07  -8.6 5.56e-04    -  1.00e+00 9.97e-01f  1
 112 -9.9682600e-02 2.22e-16 1.06e-11  -8.6 7.87e-06    -  1.00e+00 1.00e+00f  1

Number of Iterations....: 112

                                   (scaled)                 (unscaled)
Objective...............:  -9.9682599583889142e-02   -9.9682599583889142e-02
Dual infeasibility......:   1.0589793984919602e-11    1.0589793984919602e-11
Constraint violation....:   2.2204460492503131e-16    2.2204460492503131e-16
Complementarity.........:   2.5542032647526499e-09    2.5542032647526499e-09
Overall NLP error.......:   2.5542032647526499e-09    2.5542032647526499e-09


Number of objective function evaluations             = 248
Number of objective gradient evaluations             = 113
Number of equality constraint evaluations            = 248
Number of inequality constraint evaluations          = 0
Number of equality constraint Jacobian evaluations   = 1
Number of inequality constraint Jacobian evaluations = 0
Number of Lagrangian Hessian evaluations             = 112
Total CPU secs in IPOPT (w/o function evaluations)   =      1.840
Total CPU secs in NLP function evaluations           =     37.510

EXIT: Optimal Solution Found.
